(set-info :smt-lib-version 2.6)
(set-info :category "crafted")
(set-logic QF_FFA)
(define-sort FF0 () (_ FiniteField 52435875175126190479447740508185965837690552500527637822603658699938581184513))
(declare-fun return_n2_alt () FF0)
(declare-fun mul_n35_alt () FF0)
(declare-fun is_zero_n28_alt () FF0)
(declare-fun mul_n18_alt () FF0)
(declare-fun mul_n33_alt () FF0)
(declare-fun mul_n30_alt () FF0)
(declare-fun mul_n17_alt () FF0)
(declare-fun mul_n36_alt () FF0)
(declare-fun mul_n23_alt () FF0)
(declare-fun mul_n26_alt () FF0)
(declare-fun is_zero_inv_n37_alt () FF0)
(declare-fun mul_n13_alt () FF0)
(declare-fun mul_n31_alt () FF0)
(declare-fun mul_n34_alt () FF0)
(declare-fun is_zero_n16_alt () FF0)
(declare-fun b_n3_alt () FF0)
(declare-fun is_zero_n6_alt () FF0)
(declare-fun a_n4_alt () FF0)
(declare-fun mul_n7_alt () FF0)
(declare-fun mul_n19_alt () FF0)
(declare-fun mul_n9_alt () FF0)
(declare-fun mul_n25_alt () FF0)
(declare-fun mul_n10_alt () FF0)
(declare-fun d_n0_alt () FF0)
(declare-fun mul_n11_alt () FF0)
(declare-fun mul_n24_alt () FF0)
(declare-fun mul_n32_alt () FF0)
(declare-fun mul_n29_alt () FF0)
(declare-fun mul_n22_alt () FF0)
(declare-fun mul_n21_alt () FF0)
(declare-fun mul_n20_alt () FF0)
(declare-fun is_zero_inv_n27_alt () FF0)
(declare-fun mul_n14_alt () FF0)
(declare-fun c_n1_alt () FF0)
(declare-fun mul_n8_alt () FF0)
(declare-fun is_zero_inv_n15_alt () FF0)
(declare-fun mul_n12_alt () FF0)
(declare-fun is_zero_inv_n5_alt () FF0)
(declare-fun return_n2 () FF0)
(declare-fun mul_n35 () FF0)
(declare-fun is_zero_n28 () FF0)
(declare-fun mul_n18 () FF0)
(declare-fun mul_n33 () FF0)
(declare-fun mul_n30 () FF0)
(declare-fun mul_n17 () FF0)
(declare-fun mul_n36 () FF0)
(declare-fun mul_n23 () FF0)
(declare-fun mul_n26 () FF0)
(declare-fun is_zero_inv_n37 () FF0)
(declare-fun mul_n13 () FF0)
(declare-fun mul_n31 () FF0)
(declare-fun mul_n34 () FF0)
(declare-fun is_zero_n16 () FF0)
(declare-fun b_n3 () FF0)
(declare-fun is_zero_n6 () FF0)
(declare-fun a_n4 () FF0)
(declare-fun mul_n7 () FF0)
(declare-fun mul_n19 () FF0)
(declare-fun mul_n9 () FF0)
(declare-fun mul_n25 () FF0)
(declare-fun mul_n10 () FF0)
(declare-fun d_n0 () FF0)
(declare-fun mul_n11 () FF0)
(declare-fun mul_n24 () FF0)
(declare-fun mul_n32 () FF0)
(declare-fun mul_n29 () FF0)
(declare-fun mul_n22 () FF0)
(declare-fun mul_n21 () FF0)
(declare-fun mul_n20 () FF0)
(declare-fun is_zero_inv_n27 () FF0)
(declare-fun mul_n14 () FF0)
(declare-fun c_n1 () FF0)
(declare-fun mul_n8 () FF0)
(declare-fun is_zero_inv_n15 () FF0)
(declare-fun mul_n12 () FF0)
(declare-fun is_zero_inv_n5 () FF0)
(assert 
  (let ((let0 return_n2_alt))
  (let ((let1 (as ff4 FF0)))
  (let ((let2 mul_n35_alt))
  (let ((let3 is_zero_n28_alt))
  (let ((let4 (as ff52435875175126190479447740508185965837690552500527637822603658699938581184512 FF0)))
  (let ((let5 mul_n18_alt))
  (let ((let6 (ff.mul let5 let4)))
  (let ((let7 mul_n33_alt))
  (let ((let8 (ff.mul let7 let4)))
  (let ((let9 mul_n30_alt))
  (let ((let10 mul_n17_alt))
  (let ((let11 mul_n36_alt))
  (let ((let12 (ff.mul let11 let4)))
  (let ((let13 mul_n23_alt))
  (let ((let14 mul_n26_alt))
  (let ((let15 (ff.add let14 let13 let12 let10 let9 let8 let6 let3 let2 let1)))
  (let ((let16 is_zero_inv_n37_alt))
  (let ((let17 (ff.mul let16 let15)))
  (let ((let18 (= let17 let0)))
  (let ((let19 mul_n13_alt))
  (let ((let20 (as ff1 FF0)))
  (let ((let21 mul_n31_alt))
  (let ((let22 (ff.mul let21 let4)))
  (let ((let23 (ff.add let22 let20)))
  (let ((let24 (ff.mul let23 let19)))
  (let ((let25 (= let24 let11)))
  (let ((let26 (ff.mul let14 let4)))
  (let ((let27 mul_n34_alt))
  (let ((let28 (ff.mul let27 let4)))
  (let ((let29 is_zero_n16_alt))
  (let ((let30 (ff.add let29 let28 let26)))
  (let ((let31 b_n3_alt))
  (let ((let32 is_zero_n6_alt))
  (let ((let33 a_n4_alt))
  (let ((let34 (ff.mul let33 let4)))
  (let ((let35 mul_n7_alt))
  (let ((let36 (ff.mul let35 let4)))
  (let ((let37 mul_n19_alt))
  (let ((let38 (ff.add let37 let36 let34 let32 let31)))
  (let ((let39 (ff.mul let38 let30)))
  (let ((let40 (= let39 let2)))
  (let ((let41 mul_n9_alt))
  (let ((let42 (ff.mul let41 let4)))
  (let ((let43 mul_n25_alt))
  (let ((let44 (ff.mul let43 let4)))
  (let ((let45 mul_n10_alt))
  (let ((let46 d_n0_alt))
  (let ((let47 (ff.add let46 let45 let44 let42 let20)))
  (let ((let48 mul_n11_alt))
  (let ((let49 (ff.mul let48 let4)))
  (let ((let50 (ff.add let49 let20)))
  (let ((let51 (ff.mul let50 let47)))
  (let ((let52 (= let51 let27)))
  (let ((let53 mul_n24_alt))
  (let ((let54 mul_n32_alt))
  (let ((let55 (ff.mul let54 let53)))
  (let ((let56 (= let55 let7)))
  (let ((let57 (ff.add let42 let20)))
  (let ((let58 (ff.mul let57 let21)))
  (let ((let59 (= let58 let54)))
  (let ((let60 (ff.mul let38 let5)))
  (let ((let61 (= let60 let21)))
  (let ((let62 (ff.mul let3 let4)))
  (let ((let63 (ff.add let62 let20)))
  (let ((let64 mul_n29_alt))
  (let ((let65 (ff.mul let64 let63)))
  (let ((let66 (= let65 let9)))
  (let ((let67 (ff.mul let63 let50)))
  (let ((let68 (= let67 let64)))
  (let ((let69 (as ff0 FF0)))
  (let ((let70 (as ff2 FF0)))
  (let ((let71 (ff.mul let32 let70)))
  (let ((let72 mul_n22_alt))
  (let ((let73 (ff.mul let72 let4)))
  (let ((let74 mul_n21_alt))
  (let ((let75 (ff.mul let74 let70)))
  (let ((let76 (ff.mul let53 let4)))
  (let ((let77 mul_n20_alt))
  (let ((let78 (ff.mul let77 let70)))
  (let ((let79 (as ff52435875175126190479447740508185965837690552500527637822603658699938581184511 FF0)))
  (let ((let80 (ff.mul let35 let79)))
  (let ((let81 (as ff3 FF0)))
  (let ((let82 (ff.mul let31 let81)))
  (let ((let83 (ff.add let82 let14 let80 let78 let10 let76 let75 let41 let73 let71)))
  (let ((let84 (ff.mul let3 let83)))
  (let ((let85 (= let84 let69)))
  (let ((let86 is_zero_inv_n27_alt))
  (let ((let87 (ff.mul let86 let83)))
  (let ((let88 (= let87 let63)))
  (let ((let89 (ff.mul let45 let4)))
  (let ((let90 (ff.mul let46 let4)))
  (let ((let91 (ff.add let90 let29 let89 let43 let41 let4)))
  (let ((let92 (ff.add let76 let20)))
  (let ((let93 (ff.mul let92 let91)))
  (let ((let94 (= let93 let14)))
  (let ((let95 (ff.mul let45 let70)))
  (let ((let96 (ff.mul let41 let79)))
  (let ((let97 (ff.add let96 let95 let70)))
  (let ((let98 (ff.mul let97 let46)))
  (let ((let99 (= let98 let43)))
  (let ((let100 mul_n14_alt))
  (let ((let101 (ff.add let100 let31)))
  (let ((let102 (ff.mul let101 let29)))
  (let ((let103 (= let102 let53)))
  (let ((let104 (ff.add let74 let5 let36 let77 let32 let31 let79)))
  (let ((let105 (ff.add let73 let20)))
  (let ((let106 (ff.mul let105 let104)))
  (let ((let107 (= let106 let13)))
  (let ((let108 (ff.mul let10 let4)))
  (let ((let109 (ff.mul let29 let4)))
  (let ((let110 (ff.add let109 let108 let42 let70)))
  (let ((let111 (ff.mul let110 let5)))
  (let ((let112 (= let111 let72)))
  (let ((let113 (ff.mul let32 let4)))
  (let ((let114 (ff.mul let31 let4)))
  (let ((let115 (ff.add let114 let113 let35 let20)))
  (let ((let116 (ff.mul let77 let79)))
  (let ((let117 (ff.add let116 let70)))
  (let ((let118 (ff.mul let117 let115)))
  (let ((let119 (= let118 let74)))
  (let ((let120 c_n1_alt))
  (let ((let121 (ff.mul let120 let4)))
  (let ((let122 mul_n8_alt))
  (let ((let123 (ff.mul let122 let4)))
  (let ((let124 (ff.add let123 let121 let20)))
  (let ((let125 (ff.mul let38 let124)))
  (let ((let126 (= let125 let77)))
  (let ((let127 (ff.mul let35 let70)))
  (let ((let128 (ff.mul let32 let79)))
  (let ((let129 (ff.mul let31 let79)))
  (let ((let130 (ff.add let129 let128 let127 let70)))
  (let ((let131 (ff.mul let130 let33)))
  (let ((let132 (= let131 let37)))
  (let ((let133 (ff.mul let110 let48)))
  (let ((let134 (= let133 let5)))
  (let ((let135 (ff.mul let29 let79)))
  (let ((let136 (ff.add let135 let70)))
  (let ((let137 (ff.mul let136 let57)))
  (let ((let138 (= let137 let10)))
  (let ((let139 (ff.mul let31 let70)))
  (let ((let140 (ff.mul let100 let70)))
  (let ((let141 (ff.mul let19 let4)))
  (let ((let142 (ff.add let141 let120 let140 let139 let20)))
  (let ((let143 (ff.mul let29 let142)))
  (let ((let144 (= let143 let69)))
  (let ((let145 (ff.add let109 let20)))
  (let ((let146 is_zero_inv_n15_alt))
  (let ((let147 (ff.mul let146 let142)))
  (let ((let148 (= let147 let145)))
  (let ((let149 (ff.add let32 let114)))
  (let ((let150 (ff.add let141 let20)))
  (let ((let151 (ff.mul let150 let149)))
  (let ((let152 (= let151 let100)))
  (let ((let153 (ff.add let34 let20)))
  (let ((let154 mul_n12_alt))
  (let ((let155 (ff.mul let154 let153)))
  (let ((let156 (= let155 let19)))
  (let ((let157 (ff.add let90 let20)))
  (let ((let158 (ff.add let41 let89)))
  (let ((let159 (ff.mul let158 let157)))
  (let ((let160 (= let159 let154)))
  (let ((let161 (ff.add let42 let45 let20)))
  (let ((let162 (ff.mul let161 let157)))
  (let ((let163 (= let162 let48)))
  (let ((let164 (ff.add let122 let120 let41 let4)))
  (let ((let165 (ff.mul let57 let164)))
  (let ((let166 (= let165 let45)))
  (let ((let167 (ff.add let36 let32 let31)))
  (let ((let168 (ff.mul let124 let167)))
  (let ((let169 (= let168 let41)))
  (let ((let170 (ff.add let121 let32)))
  (let ((let171 (ff.mul let46 let170)))
  (let ((let172 (= let171 let122)))
  (let ((let173 (ff.mul let139 let32)))
  (let ((let174 (= let173 let35)))
  (let ((let175 (ff.mul let33 let79)))
  (let ((let176 (ff.add let175 let121 let114 let1)))
  (let ((let177 (ff.mul let32 let176)))
  (let ((let178 (= let177 let69)))
  (let ((let179 (ff.add let113 let20)))
  (let ((let180 is_zero_inv_n5_alt))
  (let ((let181 (ff.mul let180 let176)))
  (let ((let182 (= let181 let179)))
  (let ((let183 (and let182 let178 let174 let172 let169 let166 let163 let160 let156 let152 let148 let144 let138 let134 let132 let126 let119 let112 let107 let103 let99 let94 let88 let85 let68 let66 let61 let59 let56 let52 let40 let25 let18)))
  (let ((let184 return_n2))
  (let ((let185 mul_n35))
  (let ((let186 is_zero_n28))
  (let ((let187 mul_n18))
  (let ((let188 (ff.mul let187 let4)))
  (let ((let189 mul_n33))
  (let ((let190 (ff.mul let189 let4)))
  (let ((let191 mul_n30))
  (let ((let192 mul_n17))
  (let ((let193 mul_n36))
  (let ((let194 (ff.mul let193 let4)))
  (let ((let195 mul_n23))
  (let ((let196 mul_n26))
  (let ((let197 (ff.add let196 let195 let194 let192 let191 let190 let188 let186 let185 let1)))
  (let ((let198 is_zero_inv_n37))
  (let ((let199 (ff.mul let198 let197)))
  (let ((let200 (= let199 let184)))
  (let ((let201 mul_n13))
  (let ((let202 mul_n31))
  (let ((let203 (ff.mul let202 let4)))
  (let ((let204 (ff.add let203 let20)))
  (let ((let205 (ff.mul let204 let201)))
  (let ((let206 (= let205 let193)))
  (let ((let207 (ff.mul let196 let4)))
  (let ((let208 mul_n34))
  (let ((let209 (ff.mul let208 let4)))
  (let ((let210 is_zero_n16))
  (let ((let211 (ff.add let210 let209 let207)))
  (let ((let212 b_n3))
  (let ((let213 is_zero_n6))
  (let ((let214 a_n4))
  (let ((let215 (ff.mul let214 let4)))
  (let ((let216 mul_n7))
  (let ((let217 (ff.mul let216 let4)))
  (let ((let218 mul_n19))
  (let ((let219 (ff.add let218 let217 let215 let213 let212)))
  (let ((let220 (ff.mul let219 let211)))
  (let ((let221 (= let220 let185)))
  (let ((let222 mul_n9))
  (let ((let223 (ff.mul let222 let4)))
  (let ((let224 mul_n25))
  (let ((let225 (ff.mul let224 let4)))
  (let ((let226 mul_n10))
  (let ((let227 d_n0))
  (let ((let228 (ff.add let227 let226 let225 let223 let20)))
  (let ((let229 mul_n11))
  (let ((let230 (ff.mul let229 let4)))
  (let ((let231 (ff.add let230 let20)))
  (let ((let232 (ff.mul let231 let228)))
  (let ((let233 (= let232 let208)))
  (let ((let234 mul_n24))
  (let ((let235 mul_n32))
  (let ((let236 (ff.mul let235 let234)))
  (let ((let237 (= let236 let189)))
  (let ((let238 (ff.add let223 let20)))
  (let ((let239 (ff.mul let238 let202)))
  (let ((let240 (= let239 let235)))
  (let ((let241 (ff.mul let219 let187)))
  (let ((let242 (= let241 let202)))
  (let ((let243 (ff.mul let186 let4)))
  (let ((let244 (ff.add let243 let20)))
  (let ((let245 mul_n29))
  (let ((let246 (ff.mul let245 let244)))
  (let ((let247 (= let246 let191)))
  (let ((let248 (ff.mul let244 let231)))
  (let ((let249 (= let248 let245)))
  (let ((let250 (ff.mul let213 let70)))
  (let ((let251 mul_n22))
  (let ((let252 (ff.mul let251 let4)))
  (let ((let253 mul_n21))
  (let ((let254 (ff.mul let253 let70)))
  (let ((let255 (ff.mul let234 let4)))
  (let ((let256 mul_n20))
  (let ((let257 (ff.mul let256 let70)))
  (let ((let258 (ff.mul let216 let79)))
  (let ((let259 (ff.mul let212 let81)))
  (let ((let260 (ff.add let259 let196 let258 let257 let192 let255 let254 let222 let252 let250)))
  (let ((let261 (ff.mul let186 let260)))
  (let ((let262 (= let261 let69)))
  (let ((let263 is_zero_inv_n27))
  (let ((let264 (ff.mul let263 let260)))
  (let ((let265 (= let264 let244)))
  (let ((let266 (ff.mul let226 let4)))
  (let ((let267 (ff.mul let227 let4)))
  (let ((let268 (ff.add let267 let210 let266 let224 let222 let4)))
  (let ((let269 (ff.add let255 let20)))
  (let ((let270 (ff.mul let269 let268)))
  (let ((let271 (= let270 let196)))
  (let ((let272 (ff.mul let226 let70)))
  (let ((let273 (ff.mul let222 let79)))
  (let ((let274 (ff.add let273 let272 let70)))
  (let ((let275 (ff.mul let274 let227)))
  (let ((let276 (= let275 let224)))
  (let ((let277 mul_n14))
  (let ((let278 (ff.add let277 let212)))
  (let ((let279 (ff.mul let278 let210)))
  (let ((let280 (= let279 let234)))
  (let ((let281 (ff.add let253 let187 let217 let256 let213 let212 let79)))
  (let ((let282 (ff.add let252 let20)))
  (let ((let283 (ff.mul let282 let281)))
  (let ((let284 (= let283 let195)))
  (let ((let285 (ff.mul let192 let4)))
  (let ((let286 (ff.mul let210 let4)))
  (let ((let287 (ff.add let286 let285 let223 let70)))
  (let ((let288 (ff.mul let287 let187)))
  (let ((let289 (= let288 let251)))
  (let ((let290 (ff.mul let213 let4)))
  (let ((let291 (ff.mul let212 let4)))
  (let ((let292 (ff.add let291 let290 let216 let20)))
  (let ((let293 (ff.mul let256 let79)))
  (let ((let294 (ff.add let293 let70)))
  (let ((let295 (ff.mul let294 let292)))
  (let ((let296 (= let295 let253)))
  (let ((let297 c_n1))
  (let ((let298 (ff.mul let297 let4)))
  (let ((let299 mul_n8))
  (let ((let300 (ff.mul let299 let4)))
  (let ((let301 (ff.add let300 let298 let20)))
  (let ((let302 (ff.mul let219 let301)))
  (let ((let303 (= let302 let256)))
  (let ((let304 (ff.mul let216 let70)))
  (let ((let305 (ff.mul let213 let79)))
  (let ((let306 (ff.mul let212 let79)))
  (let ((let307 (ff.add let306 let305 let304 let70)))
  (let ((let308 (ff.mul let307 let214)))
  (let ((let309 (= let308 let218)))
  (let ((let310 (ff.mul let287 let229)))
  (let ((let311 (= let310 let187)))
  (let ((let312 (ff.mul let210 let79)))
  (let ((let313 (ff.add let312 let70)))
  (let ((let314 (ff.mul let313 let238)))
  (let ((let315 (= let314 let192)))
  (let ((let316 (ff.mul let212 let70)))
  (let ((let317 (ff.mul let277 let70)))
  (let ((let318 (ff.mul let201 let4)))
  (let ((let319 (ff.add let318 let297 let317 let316 let20)))
  (let ((let320 (ff.mul let210 let319)))
  (let ((let321 (= let320 let69)))
  (let ((let322 (ff.add let286 let20)))
  (let ((let323 is_zero_inv_n15))
  (let ((let324 (ff.mul let323 let319)))
  (let ((let325 (= let324 let322)))
  (let ((let326 (ff.add let213 let291)))
  (let ((let327 (ff.add let318 let20)))
  (let ((let328 (ff.mul let327 let326)))
  (let ((let329 (= let328 let277)))
  (let ((let330 (ff.add let215 let20)))
  (let ((let331 mul_n12))
  (let ((let332 (ff.mul let331 let330)))
  (let ((let333 (= let332 let201)))
  (let ((let334 (ff.add let267 let20)))
  (let ((let335 (ff.add let222 let266)))
  (let ((let336 (ff.mul let335 let334)))
  (let ((let337 (= let336 let331)))
  (let ((let338 (ff.add let223 let226 let20)))
  (let ((let339 (ff.mul let338 let334)))
  (let ((let340 (= let339 let229)))
  (let ((let341 (ff.add let299 let297 let222 let4)))
  (let ((let342 (ff.mul let238 let341)))
  (let ((let343 (= let342 let226)))
  (let ((let344 (ff.add let217 let213 let212)))
  (let ((let345 (ff.mul let301 let344)))
  (let ((let346 (= let345 let222)))
  (let ((let347 (ff.add let298 let213)))
  (let ((let348 (ff.mul let227 let347)))
  (let ((let349 (= let348 let299)))
  (let ((let350 (ff.mul let316 let213)))
  (let ((let351 (= let350 let216)))
  (let ((let352 (ff.mul let214 let79)))
  (let ((let353 (ff.add let352 let298 let291 let1)))
  (let ((let354 (ff.mul let213 let353)))
  (let ((let355 (= let354 let69)))
  (let ((let356 (ff.add let290 let20)))
  (let ((let357 is_zero_inv_n5))
  (let ((let358 (ff.mul let357 let353)))
  (let ((let359 (= let358 let356)))
  (let ((let360 (and let359 let355 let351 let349 let346 let343 let340 let337 let333 let329 let325 let321 let315 let311 let309 let303 let296 let289 let284 let280 let276 let271 let265 let262 let249 let247 let242 let240 let237 let233 let221 let206 let200)))
  (let ((let361 (= let184 let0)))
  (let ((let362 (not let361)))
  (let ((let363 (= let212 let31)))
  (let ((let364 (= let227 let46)))
  (let ((let365 (= let214 let33)))
  (let ((let366 (= let297 let120)))
  (let ((let367 (and let366 let365 let364 let363)))
  (let ((let368 (and let367 let362 let360 let183)))
  let368
)))))))))))))))))))))))))))))))))))))))))))))))))))))))))))))))))))))))))))))))))))))))))))))))))))))))))))))))))))))))))))))))))))))))))))))))))))))))))))))))))))))))))))))))))))))))))))))))))))))))))))))))))))))))))))))))))))))))))))))))))))))))))))))))))))))))))))))))))))))))))))))))))))))))))))))))))))))))))))))))))))))))))))))))))))))))))))))))))))))))))))))))))
)
(check-sat)
